language ESSENCE' 1.0
letting lastdx=93
letting cage be [
[48,11,8,11,7,12,7,13,7,13,8],
[25,5,16,4,16,3,16,2,16,0,0],
[14,11,11,0,0, 0,0, 0,0, 0,0],
[33,6,12,6,13,6,14,6,15,0,0],
[4,4,5,0,0, 0,0, 0,0, 0,0],
[28,8,14,9,14,9,15,10,15,0,0],
[24,14,8,14,9,15,9,15,10,0,0],
[19,16,16,15,16,15,15,0,0, 0,0],
[7,11,15,0,0, 0,0, 0,0, 0,0],
[18,16,3,15,3,0,0, 0,0, 0,0],
[10,12,11,0,0, 0,0, 0,0, 0,0],
[1,8,9,0,0, 0,0, 0,0, 0,0],
[37,14,15,13,15,12,15,0,0, 0,0],
[6,15,13,0,0, 0,0, 0,0, 0,0],
[36,10,6,10,5,10,4,11,4,0,0],
[29,8,3,9,3,9,2,10,2,0,0],
[16,12,13,11,13,0,0, 0,0, 0,0],
[26,12,16,13,16,14,16,0,0, 0,0],
[14,6,5,0,0, 0,0, 0,0, 0,0],
[45,5,8,5,7,6,7,6,6,7,6],
[13,5,10,0,0, 0,0, 0,0, 0,0],
[13,7,5,0,0, 0,0, 0,0, 0,0],
[28,14,4,14,3,13,3,13,2,0,0],
[10,3,2,0,0, 0,0, 0,0, 0,0],
[12,1,5,0,0, 0,0, 0,0, 0,0],
[44,2,1,1,1,1,2,2,2,2,3],
[1,4,4,0,0, 0,0, 0,0, 0,0],
[2,10,3,0,0, 0,0, 0,0, 0,0],
[28,7,13,7,12,8,12,0,0, 0,0],
[41,5,12,5,13,4,13,4,12,4,11],
[27,1,15,1,16,0,0, 0,0, 0,0],
[17,13,4,13,5,0,0, 0,0, 0,0],
[25,8,1,7,1,7,2,8,2,0,0],
[3,16,2,0,0, 0,0, 0,0, 0,0],
[28,13,12,13,13,13,14,12,14,0,0],
[36,15,12,15,11,16,11,0,0, 0,0],
[9,4,10,0,0, 0,0, 0,0, 0,0],
[48,4,3,4,2,4,1,3,1,5,1],
[5,11,16,0,0, 0,0, 0,0, 0,0],
[14,3,6,0,0, 0,0, 0,0, 0,0],
[55,4,8,4,7,3,7,3,8,3,9],
[37,12,12,11,12,10,12,10,11,0,0],
[12,7,9,7,8,6,8,0,0, 0,0],
[48,6,4,5,4,5,5,5,6,4,6],
[38,2,12,2,13,2,14,2,15,0,0],
[41,16,4,16,5,15,5,15,4,15,6],
[49,16,9,16,10,16,8,15,8,15,7],
[36,2,8,2,7,2,6,1,6,1,7],
[21,9,16,10,16,0,0, 0,0, 0,0],
[12,6,1,0,0, 0,0, 0,0, 0,0],
[16,15,14,0,0, 0,0, 0,0, 0,0],
[5,9,10,0,0, 0,0, 0,0, 0,0],
[10,14,10,14,11,0,0, 0,0, 0,0],
[39,5,2,5,3,6,3,6,2,0,0],
[49,3,10,2,10,2,9,1,9,1,8],
[10,1,13,1,14,0,0, 0,0, 0,0],
[27,14,5,14,6,14,7,0,0, 0,0],
[22,2,4,1,4,1,3,0,0, 0,0],
[19,7,16,6,16,0,0, 0,0, 0,0],
[41,8,4,8,5,8,6,8,7,7,7],
[3,9,12,0,0, 0,0, 0,0, 0,0],
[38,12,10,13,10,13,11,13,9,0,0],
[39,9,9,9,8,8,8,10,8,10,9],
[36,15,1,16,1,14,1,13,1,0,0],
[2,4,9,0,0, 0,0, 0,0, 0,0],
[7,5,9,0,0, 0,0, 0,0, 0,0],
[31,11,9,12,9,12,8,0,0, 0,0],
[21,16,15,16,14,16,13,16,12,0,0],
[16,8,16,0,0, 0,0, 0,0, 0,0],
[1,14,12,0,0, 0,0, 0,0, 0,0],
[12,7,11,0,0, 0,0, 0,0, 0,0],
[1,12,2,0,0, 0,0, 0,0, 0,0],
[2,11,14,0,0, 0,0, 0,0, 0,0],
[26,1,11,1,10,1,12,0,0, 0,0],
[20,14,14,14,13,0,0, 0,0, 0,0],
[25,3,4,3,3,3,5,2,5,0,0],
[40,11,3,12,3,12,4,12,5,0,0],
[33,11,2,11,1,12,1,0,0, 0,0],
[10,8,15,0,0, 0,0, 0,0, 0,0],
[28,3,15,4,15,4,14,0,0, 0,0],
[16,5,11,0,0, 0,0, 0,0, 0,0],
[17,5,14,5,15,0,0, 0,0, 0,0],
[15,6,9,6,10,6,11,0,0, 0,0],
[25,7,3,7,4,0,0, 0,0, 0,0],
[21,7,10,8,10,0,0, 0,0, 0,0],
[3,7,14,7,15,0,0, 0,0, 0,0],
[26,8,11,9,11,0,0, 0,0, 0,0],
[52,8,13,9,13,10,13,10,14,0,0],
[25,9,1,10,1,0,0, 0,0, 0,0],
[7,9,4,0,0, 0,0, 0,0, 0,0],
[26,9,5,9,6,9,7,10,7,0,0],
[13,10,10,11,10,0,0, 0,0, 0,0],
[24,14,2,15,2,0,0, 0,0, 0,0],
[25,16,6,16,7,0,0, 0,0, 0,0]
]
